$instance size is  500
letting capacity be  82344
letting items be new type enum { 
a1,a2,a3,a4,a5,a6,a7,a8,a9,a10,a11,a12,a13,a14,a15,a16,a17,a18,a19,a20,a21,a22,a23,a24,a25,a26,a27,a28,a29,a30,a31,a32,a33,a34,a35,a36,a37,a38,a39,a40,a41,a42,a43,a44,a45,a46,a47,a48,a49,a50,a51,a52,a53,a54,a55,a56,a57,a58,a59,a60,a61,a62,a63,a64,a65,a66,a67,a68,a69,a70,a71,a72,a73,a74,a75,a76,a77,a78,a79,a80,a81,a82,a83,a84,a85,a86,a87,a88,a89,a90,a91,a92,a93,a94,a95,a96,a97,a98,a99,a100,a101,a102,a103,a104,a105,a106,a107,a108,a109,a110,a111,a112,a113,a114,a115,a116,a117,a118,a119,a120,a121,a122,a123,a124,a125,a126,a127,a128,a129,a130,a131,a132,a133,a134,a135,a136,a137,a138,a139,a140,a141,a142,a143,a144,a145,a146,a147,a148,a149,a150,a151,a152,a153,a154,a155,a156,a157,a158,a159,a160,a161,a162,a163,a164,a165,a166,a167,a168,a169,a170,a171,a172,a173,a174,a175,a176,a177,a178,a179,a180,a181,a182,a183,a184,a185,a186,a187,a188,a189,a190,a191,a192,a193,a194,a195,a196,a197,a198,a199,a200,a201,a202,a203,a204,a205,a206,a207,a208,a209,a210,a211,a212,a213,a214,a215,a216,a217,a218,a219,a220,a221,a222,a223,a224,a225,a226,a227,a228,a229,a230,a231,a232,a233,a234,a235,a236,a237,a238,a239,a240,a241,a242,a243,a244,a245,a246,a247,a248,a249,a250,a251,a252,a253,a254,a255,a256,a257,a258,a259,a260,a261,a262,a263,a264,a265,a266,a267,a268,a269,a270,a271,a272,a273,a274,a275,a276,a277,a278,a279,a280,a281,a282,a283,a284,a285,a286,a287,a288,a289,a290,a291,a292,a293,a294,a295,a296,a297,a298,a299,a300,a301,a302,a303,a304,a305,a306,a307,a308,a309,a310,a311,a312,a313,a314,a315,a316,a317,a318,a319,a320,a321,a322,a323,a324,a325,a326,a327,a328,a329,a330,a331,a332,a333,a334,a335,a336,a337,a338,a339,a340,a341,a342,a343,a344,a345,a346,a347,a348,a349,a350,a351,a352,a353,a354,a355,a356,a357,a358,a359,a360,a361,a362,a363,a364,a365,a366,a367,a368,a369,a370,a371,a372,a373,a374,a375,a376,a377,a378,a379,a380,a381,a382,a383,a384,a385,a386,a387,a388,a389,a390,a391,a392,a393,a394,a395,a396,a397,a398,a399,a400,a401,a402,a403,a404,a405,a406,a407,a408,a409,a410,a411,a412,a413,a414,a415,a416,a417,a418,a419,a420,a421,a422,a423,a424,a425,a426,a427,a428,a429,a430,a431,a432,a433,a434,a435,a436,a437,a438,a439,a440,a441,a442,a443,a444,a445,a446,a447,a448,a449,a450,a451,a452,a453,a454,a455,a456,a457,a458,a459,a460,a461,a462,a463,a464,a465,a466,a467,a468,a469,a470,a471,a472,a473,a474,a475,a476,a477,a478,a479,a480,a481,a482,a483,a484,a485,a486,a487,a488,a489,a490,a491,a492,a493,a494,a495,a496,a497,a498,a499,a500
}
letting weight be function (
a1 --> 576,a2 --> 168,a3 --> 864,a4 --> 126,a5 --> 105,a6 --> 192,a7 --> 105,a8 --> 210,a9 --> 288,a10 --> 63,a11 --> 960,a12 --> 126,a13 --> 126,a14 --> 168,a15 --> 384,a16 --> 960,a17 --> 84,a18 --> 210,a19 --> 147,a20 --> 84,a21 --> 960,a22 --> 126,a23 --> 147,a24 --> 288,a25 --> 288,a26 --> 63,a27 --> 126,a28 --> 960,a29 --> 288,a30 --> 384,a31 --> 288,a32 --> 168,a33 --> 189,a34 --> 672,a35 --> 864,a36 --> 168,a37 --> 288,a38 --> 126,a39 --> 864,a40 --> 21,a41 --> 768,a42 --> 960,a43 --> 864,a44 --> 63,a45 --> 105,a46 --> 576,a47 --> 147,a48 --> 147,a49 --> 96,a50 --> 189,a51 --> 864,a52 --> 147,a53 --> 21,a54 --> 189,a55 --> 42,a56 --> 192,a57 --> 126,a58 --> 42,a59 --> 864,a60 --> 189,a61 --> 210,a62 --> 126,a63 --> 672,a64 --> 21,a65 --> 105,a66 --> 96,a67 --> 126,a68 --> 210,a69 --> 189,a70 --> 21,a71 --> 288,a72 --> 672,a73 --> 768,a74 --> 63,a75 --> 960,a76 --> 864,a77 --> 96,a78 --> 147,a79 --> 21,a80 --> 672,a81 --> 960,a82 --> 63,a83 --> 21,a84 --> 168,a85 --> 576,a86 --> 576,a87 --> 672,a88 --> 960,a89 --> 210,a90 --> 480,a91 --> 42,a92 --> 42,a93 --> 960,a94 --> 21,a95 --> 576,a96 --> 768,a97 --> 288,a98 --> 480,a99 --> 864,a100 --> 864,a101 --> 126,a102 --> 192,a103 --> 210,a104 --> 96,a105 --> 960,a106 --> 672,a107 --> 84,a108 --> 192,a109 --> 63,a110 --> 864,a111 --> 126,a112 --> 96,a113 --> 21,a114 --> 105,a115 --> 768,a116 --> 21,a117 --> 288,a118 --> 126,a119 --> 672,a120 --> 105,a121 --> 147,a122 --> 96,a123 --> 168,a124 --> 147,a125 --> 768,a126 --> 960,a127 --> 84,a128 --> 168,a129 --> 84,a130 --> 576,a131 --> 768,a132 --> 21,a133 --> 576,a134 --> 63,a135 --> 576,a136 --> 480,a137 --> 21,a138 --> 63,a139 --> 63,a140 --> 960,a141 --> 864,a142 --> 84,a143 --> 63,a144 --> 384,a145 --> 210,a146 --> 84,a147 --> 864,a148 --> 960,a149 --> 21,a150 --> 63,a151 --> 768,a152 --> 96,a153 --> 126,a154 --> 21,a155 --> 576,a156 --> 576,a157 --> 864,a158 --> 105,a159 --> 864,a160 --> 288,a161 --> 960,a162 --> 168,a163 --> 126,a164 --> 768,a165 --> 105,a166 --> 147,a167 --> 576,a168 --> 192,a169 --> 288,a170 --> 210,a171 --> 576,a172 --> 288,a173 --> 672,a174 --> 147,a175 --> 384,a176 --> 192,a177 --> 126,a178 --> 864,a179 --> 63,a180 --> 864,a181 --> 960,a182 --> 63,a183 --> 480,a184 --> 960,a185 --> 189,a186 --> 63,a187 --> 672,a188 --> 288,a189 --> 480,a190 --> 189,a191 --> 288,a192 --> 21,a193 --> 147,a194 --> 84,a195 --> 288,a196 --> 480,a197 --> 147,a198 --> 192,a199 --> 147,a200 --> 864,a201 --> 768,a202 --> 147,a203 --> 864,a204 --> 864,a205 --> 288,a206 --> 210,a207 --> 42,a208 --> 126,a209 --> 84,a210 --> 864,a211 --> 105,a212 --> 288,a213 --> 384,a214 --> 576,a215 --> 960,a216 --> 480,a217 --> 768,a218 --> 384,a219 --> 42,a220 --> 105,a221 --> 84,a222 --> 192,a223 --> 192,a224 --> 672,a225 --> 168,a226 --> 480,a227 --> 210,a228 --> 42,a229 --> 480,a230 --> 960,a231 --> 480,a232 --> 21,a233 --> 21,a234 --> 84,a235 --> 105,a236 --> 672,a237 --> 480,a238 --> 189,a239 --> 147,a240 --> 147,a241 --> 189,a242 --> 384,a243 --> 864,a244 --> 384,a245 --> 96,a246 --> 42,a247 --> 210,a248 --> 126,a249 --> 768,a250 --> 480,a251 --> 126,a252 --> 147,a253 --> 96,a254 --> 384,a255 --> 384,a256 --> 189,a257 --> 189,a258 --> 168,a259 --> 960,a260 --> 189,a261 --> 147,a262 --> 126,a263 --> 105,a264 --> 42,a265 --> 960,a266 --> 168,a267 --> 63,a268 --> 288,a269 --> 147,a270 --> 168,a271 --> 105,a272 --> 168,a273 --> 576,a274 --> 63,a275 --> 96,a276 --> 84,a277 --> 189,a278 --> 126,a279 --> 288,a280 --> 96,a281 --> 210,a282 --> 960,a283 --> 42,a284 --> 384,a285 --> 63,a286 --> 288,a287 --> 105,a288 --> 63,a289 --> 768,a290 --> 168,a291 --> 84,a292 --> 63,a293 --> 63,a294 --> 192,a295 --> 864,a296 --> 42,a297 --> 96,a298 --> 480,a299 --> 192,a300 --> 672,a301 --> 960,a302 --> 960,a303 --> 768,a304 --> 126,a305 --> 189,a306 --> 189,a307 --> 384,a308 --> 126,a309 --> 42,a310 --> 210,a311 --> 84,a312 --> 480,a313 --> 384,a314 --> 126,a315 --> 210,a316 --> 288,a317 --> 126,a318 --> 288,a319 --> 960,a320 --> 480,a321 --> 42,a322 --> 105,a323 --> 105,a324 --> 168,a325 --> 864,a326 --> 96,a327 --> 288,a328 --> 96,a329 --> 63,a330 --> 189,a331 --> 21,a332 --> 192,a333 --> 63,a334 --> 105,a335 --> 96,a336 --> 672,a337 --> 192,a338 --> 147,a339 --> 105,a340 --> 768,a341 --> 21,a342 --> 96,a343 --> 84,a344 --> 96,a345 --> 84,a346 --> 105,a347 --> 147,a348 --> 84,a349 --> 105,a350 --> 147,a351 --> 288,a352 --> 864,a353 --> 168,a354 --> 84,a355 --> 960,a356 --> 384,a357 --> 42,a358 --> 210,a359 --> 480,a360 --> 126,a361 --> 63,a362 --> 210,a363 --> 96,a364 --> 576,a365 --> 105,a366 --> 768,a367 --> 768,a368 --> 105,a369 --> 96,a370 --> 576,a371 --> 42,a372 --> 672,a373 --> 288,a374 --> 576,a375 --> 189,a376 --> 63,a377 --> 960,a378 --> 480,a379 --> 105,a380 --> 189,a381 --> 105,a382 --> 105,a383 --> 672,a384 --> 672,a385 --> 126,a386 --> 42,a387 --> 192,a388 --> 960,a389 --> 189,a390 --> 42,a391 --> 288,a392 --> 147,a393 --> 480,a394 --> 192,a395 --> 147,a396 --> 864,a397 --> 168,a398 --> 168,a399 --> 42,a400 --> 105,a401 --> 960,a402 --> 960,a403 --> 168,a404 --> 21,a405 --> 480,a406 --> 768,a407 --> 672,a408 --> 126,a409 --> 105,a410 --> 672,a411 --> 147,a412 --> 384,a413 --> 384,a414 --> 672,a415 --> 960,a416 --> 147,a417 --> 384,a418 --> 768,a419 --> 126,a420 --> 84,a421 --> 288,a422 --> 126,a423 --> 288,a424 --> 168,a425 --> 96,a426 --> 960,a427 --> 84,a428 --> 768,a429 --> 168,a430 --> 21,a431 --> 168,a432 --> 210,a433 --> 126,a434 --> 210,a435 --> 672,a436 --> 126,a437 --> 189,a438 --> 960,a439 --> 84,a440 --> 21,a441 --> 210,a442 --> 168,a443 --> 288,a444 --> 864,a445 --> 63,a446 --> 189,a447 --> 63,a448 --> 864,a449 --> 63,a450 --> 21,a451 --> 147,a452 --> 168,a453 --> 168,a454 --> 192,a455 --> 96,a456 --> 960,a457 --> 864,a458 --> 384,a459 --> 672,a460 --> 960,a461 --> 384,a462 --> 864,a463 --> 768,a464 --> 96,a465 --> 21,a466 --> 288,a467 --> 672,a468 --> 192,a469 --> 672,a470 --> 576,a471 --> 84,a472 --> 147,a473 --> 864,a474 --> 84,a475 --> 210,a476 --> 126,a477 --> 192,a478 --> 192,a479 --> 384,a480 --> 189,a481 --> 576,a482 --> 168,a483 --> 210,a484 --> 768,a485 --> 84,a486 --> 63,a487 --> 288,a488 --> 210,a489 --> 168,a490 --> 21,a491 --> 864,a492 --> 576,a493 --> 168,a494 --> 288,a495 --> 21,a496 --> 105,a497 --> 288,a498 --> 960,a499 --> 288,a500 --> 864
)
letting gain be function (
a1 --> 708,a2 --> 1464,a3 --> 1062,a4 --> 1098,a5 --> 915,a6 --> 236,a7 --> 915,a8 --> 1830,a9 --> 354,a10 --> 549,a11 --> 1180,a12 --> 1098,a13 --> 1098,a14 --> 1464,a15 --> 472,a16 --> 1180,a17 --> 732,a18 --> 1830,a19 --> 1281,a20 --> 732,a21 --> 1180,a22 --> 1098,a23 --> 1281,a24 --> 354,a25 --> 354,a26 --> 549,a27 --> 1098,a28 --> 1180,a29 --> 354,a30 --> 472,a31 --> 354,a32 --> 1464,a33 --> 1647,a34 --> 826,a35 --> 1062,a36 --> 1464,a37 --> 354,a38 --> 1098,a39 --> 1062,a40 --> 183,a41 --> 944,a42 --> 1180,a43 --> 1062,a44 --> 549,a45 --> 915,a46 --> 708,a47 --> 1281,a48 --> 1281,a49 --> 118,a50 --> 1647,a51 --> 1062,a52 --> 1281,a53 --> 183,a54 --> 1647,a55 --> 366,a56 --> 236,a57 --> 1098,a58 --> 366,a59 --> 1062,a60 --> 1647,a61 --> 1830,a62 --> 1098,a63 --> 826,a64 --> 183,a65 --> 915,a66 --> 118,a67 --> 1098,a68 --> 1830,a69 --> 1647,a70 --> 183,a71 --> 354,a72 --> 826,a73 --> 944,a74 --> 549,a75 --> 1180,a76 --> 1062,a77 --> 118,a78 --> 1281,a79 --> 183,a80 --> 826,a81 --> 1180,a82 --> 549,a83 --> 183,a84 --> 1464,a85 --> 708,a86 --> 708,a87 --> 826,a88 --> 1180,a89 --> 1830,a90 --> 590,a91 --> 366,a92 --> 366,a93 --> 1180,a94 --> 183,a95 --> 708,a96 --> 944,a97 --> 354,a98 --> 590,a99 --> 1062,a100 --> 1062,a101 --> 1098,a102 --> 236,a103 --> 1830,a104 --> 118,a105 --> 1180,a106 --> 826,a107 --> 732,a108 --> 236,a109 --> 549,a110 --> 1062,a111 --> 1098,a112 --> 118,a113 --> 183,a114 --> 915,a115 --> 944,a116 --> 183,a117 --> 354,a118 --> 1098,a119 --> 826,a120 --> 915,a121 --> 1281,a122 --> 118,a123 --> 1464,a124 --> 1281,a125 --> 944,a126 --> 1180,a127 --> 732,a128 --> 1464,a129 --> 732,a130 --> 708,a131 --> 944,a132 --> 183,a133 --> 708,a134 --> 549,a135 --> 708,a136 --> 590,a137 --> 183,a138 --> 549,a139 --> 549,a140 --> 1180,a141 --> 1062,a142 --> 732,a143 --> 549,a144 --> 472,a145 --> 1830,a146 --> 732,a147 --> 1062,a148 --> 1180,a149 --> 183,a150 --> 549,a151 --> 944,a152 --> 118,a153 --> 1098,a154 --> 183,a155 --> 708,a156 --> 708,a157 --> 1062,a158 --> 915,a159 --> 1062,a160 --> 354,a161 --> 1180,a162 --> 1464,a163 --> 1098,a164 --> 944,a165 --> 915,a166 --> 1281,a167 --> 708,a168 --> 236,a169 --> 354,a170 --> 1830,a171 --> 708,a172 --> 354,a173 --> 826,a174 --> 1281,a175 --> 472,a176 --> 236,a177 --> 1098,a178 --> 1062,a179 --> 549,a180 --> 1062,a181 --> 1180,a182 --> 549,a183 --> 590,a184 --> 1180,a185 --> 1647,a186 --> 549,a187 --> 826,a188 --> 354,a189 --> 590,a190 --> 1647,a191 --> 354,a192 --> 183,a193 --> 1281,a194 --> 732,a195 --> 354,a196 --> 590,a197 --> 1281,a198 --> 236,a199 --> 1281,a200 --> 1062,a201 --> 944,a202 --> 1281,a203 --> 1062,a204 --> 1062,a205 --> 354,a206 --> 1830,a207 --> 366,a208 --> 1098,a209 --> 732,a210 --> 1062,a211 --> 915,a212 --> 354,a213 --> 472,a214 --> 708,a215 --> 1180,a216 --> 590,a217 --> 944,a218 --> 472,a219 --> 366,a220 --> 915,a221 --> 732,a222 --> 236,a223 --> 236,a224 --> 826,a225 --> 1464,a226 --> 590,a227 --> 1830,a228 --> 366,a229 --> 590,a230 --> 1180,a231 --> 590,a232 --> 183,a233 --> 183,a234 --> 732,a235 --> 915,a236 --> 826,a237 --> 590,a238 --> 1647,a239 --> 1281,a240 --> 1281,a241 --> 1647,a242 --> 472,a243 --> 1062,a244 --> 472,a245 --> 118,a246 --> 366,a247 --> 1830,a248 --> 1098,a249 --> 944,a250 --> 590,a251 --> 1098,a252 --> 1281,a253 --> 118,a254 --> 472,a255 --> 472,a256 --> 1647,a257 --> 1647,a258 --> 1464,a259 --> 1180,a260 --> 1647,a261 --> 1281,a262 --> 1098,a263 --> 915,a264 --> 366,a265 --> 1180,a266 --> 1464,a267 --> 549,a268 --> 354,a269 --> 1281,a270 --> 1464,a271 --> 915,a272 --> 1464,a273 --> 708,a274 --> 549,a275 --> 118,a276 --> 732,a277 --> 1647,a278 --> 1098,a279 --> 354,a280 --> 118,a281 --> 1830,a282 --> 1180,a283 --> 366,a284 --> 472,a285 --> 549,a286 --> 354,a287 --> 915,a288 --> 549,a289 --> 944,a290 --> 1464,a291 --> 732,a292 --> 549,a293 --> 549,a294 --> 236,a295 --> 1062,a296 --> 366,a297 --> 118,a298 --> 590,a299 --> 236,a300 --> 826,a301 --> 1180,a302 --> 1180,a303 --> 944,a304 --> 1098,a305 --> 1647,a306 --> 1647,a307 --> 472,a308 --> 1098,a309 --> 366,a310 --> 1830,a311 --> 732,a312 --> 590,a313 --> 472,a314 --> 1098,a315 --> 1830,a316 --> 354,a317 --> 1098,a318 --> 354,a319 --> 1180,a320 --> 590,a321 --> 366,a322 --> 915,a323 --> 915,a324 --> 1464,a325 --> 1062,a326 --> 118,a327 --> 354,a328 --> 118,a329 --> 549,a330 --> 1647,a331 --> 183,a332 --> 236,a333 --> 549,a334 --> 915,a335 --> 118,a336 --> 826,a337 --> 236,a338 --> 1281,a339 --> 915,a340 --> 944,a341 --> 183,a342 --> 118,a343 --> 732,a344 --> 118,a345 --> 732,a346 --> 915,a347 --> 1281,a348 --> 732,a349 --> 915,a350 --> 1281,a351 --> 354,a352 --> 1062,a353 --> 1464,a354 --> 732,a355 --> 1180,a356 --> 472,a357 --> 366,a358 --> 1830,a359 --> 590,a360 --> 1098,a361 --> 549,a362 --> 1830,a363 --> 118,a364 --> 708,a365 --> 915,a366 --> 944,a367 --> 944,a368 --> 915,a369 --> 118,a370 --> 708,a371 --> 366,a372 --> 826,a373 --> 354,a374 --> 708,a375 --> 1647,a376 --> 549,a377 --> 1180,a378 --> 590,a379 --> 915,a380 --> 1647,a381 --> 915,a382 --> 915,a383 --> 826,a384 --> 826,a385 --> 1098,a386 --> 366,a387 --> 236,a388 --> 1180,a389 --> 1647,a390 --> 366,a391 --> 354,a392 --> 1281,a393 --> 590,a394 --> 236,a395 --> 1281,a396 --> 1062,a397 --> 1464,a398 --> 1464,a399 --> 366,a400 --> 915,a401 --> 1180,a402 --> 1180,a403 --> 1464,a404 --> 183,a405 --> 590,a406 --> 944,a407 --> 826,a408 --> 1098,a409 --> 915,a410 --> 826,a411 --> 1281,a412 --> 472,a413 --> 472,a414 --> 826,a415 --> 1180,a416 --> 1281,a417 --> 472,a418 --> 944,a419 --> 1098,a420 --> 732,a421 --> 354,a422 --> 1098,a423 --> 354,a424 --> 1464,a425 --> 118,a426 --> 1180,a427 --> 732,a428 --> 944,a429 --> 1464,a430 --> 183,a431 --> 1464,a432 --> 1830,a433 --> 1098,a434 --> 1830,a435 --> 826,a436 --> 1098,a437 --> 1647,a438 --> 1180,a439 --> 732,a440 --> 183,a441 --> 1830,a442 --> 1464,a443 --> 354,a444 --> 1062,a445 --> 549,a446 --> 1647,a447 --> 549,a448 --> 1062,a449 --> 549,a450 --> 183,a451 --> 1281,a452 --> 1464,a453 --> 1464,a454 --> 236,a455 --> 118,a456 --> 1180,a457 --> 1062,a458 --> 472,a459 --> 826,a460 --> 1180,a461 --> 472,a462 --> 1062,a463 --> 944,a464 --> 118,a465 --> 183,a466 --> 354,a467 --> 826,a468 --> 236,a469 --> 826,a470 --> 708,a471 --> 732,a472 --> 1281,a473 --> 1062,a474 --> 732,a475 --> 1830,a476 --> 1098,a477 --> 236,a478 --> 236,a479 --> 472,a480 --> 1647,a481 --> 708,a482 --> 1464,a483 --> 1830,a484 --> 944,a485 --> 732,a486 --> 549,a487 --> 354,a488 --> 1830,a489 --> 1464,a490 --> 183,a491 --> 1062,a492 --> 708,a493 --> 1464,a494 --> 354,a495 --> 183,a496 --> 915,a497 --> 354,a498 --> 1180,a499 --> 354,a500 --> 1062
)
